80 80
28 76 1
20 90 1
50 100 1
63 77 1
27 12 1
84 71 1
55 50 1
83 68 1
37 78 1
60 69 1
72 64 1
65 72 1
59 88 1
98 79 1
100 89 1
9 38 1
44 19 1
98 100 1
90 76 1
64 64 1
89 60 1
58 83 1
91 74 1
81 53 1
96 65 1
81 77 1
54 84 1
72 4 1
15 87 1
65 83 1
29 69 1
100 65 1
96 58 1
12 66 1
65 89 1
51 90 1
88 97 1
69 81 1
63 84 1
65 75 1
92 98 1
89 72 1
73 90 1
90 72 1
57 60 1
69 74 1
45 9 1
77 80 1
35 35 1
62 89 1
78 88 1
75 50 1
74 70 1
77 16 1
72 80 1
86 83 1
74 67 1
83 53 1
79 83 1
57 76 1
87 77 1
60 52 1
97 98 1
91 82 1
11 99 1
50 75 1
27 83 1
86 99 1
96 80 1
50 87 1
68 62 1
93 77 1
94 74 1
14 80 1
71 62 1
12 18 1
52 80 1
38 18 1
37 25 1
42 20 1
100 100 
100 100 
100 100 
100 100 
100 100 
100 100 
100 100 
100 100 
100 100 
100 100 
100 100 
100 100 
100 100 
100 100 
100 100 
100 100 
100 100 
100 100 
100 100 
100 100 
100 100 
100 100 
100 100 
100 100 
100 100 
100 100 
100 100 
100 100 
100 100 
100 100 
100 100 
100 100 
100 100 
100 100 
100 100 
100 100 
100 100 
100 100 
100 100 
100 100 
100 100 
100 100 
100 100 
100 100 
100 100 
100 100 
100 100 
100 100 
100 100 
100 100 
100 100 
100 100 
100 100 
100 100 
100 100 
100 100 
100 100 
100 100 
100 100 
100 100 
100 100 
100 100 
100 100 
100 100 
100 100 
100 100 
100 100 
100 100 
100 100 
100 100 
100 100 
100 100 
100 100 
100 100 
100 100 
100 100 
100 100 
100 100 
100 100 
100 100 
